
Gurobi 9.5.0 (linux64) logging started Tue Nov  7 19:19:18 2023

Set parameter LogFile to value "/lustre1/scratch/348/vsc34888/JointResearch/05.Models/06.Benchmarking/F.Representative_days_based_on_Line_Benefit_NN_OC_fy_1/RTS24_ByStages_nc10/openStarNet_RTS24_ByStages_nc10.log"
Set parameter Method to value 2
Set parameter MIPFocus to value 1
Set parameter Presolve to value 2
Set parameter RINS to value 100
Set parameter MIPGap to value 0.01
Set parameter Threads to value 36
Set parameter TimeLimit to value 604800
Set parameter IterationLimit to value 760000000
Gurobi Optimizer version 9.5.0 build v9.5.0rc5 (linux64)
Thread count: 36 physical cores, 36 logical processors, using up to 36 threads
Optimize a model with 4453 rows, 2593 columns and 12240 nonzeros
Model fingerprint: 0x4205bf62
Variable types: 2554 continuous, 39 integer (39 binary)
Coefficient statistics:
  Matrix range     [3e-02, 4e+03]
  Objective range  [1e+00, 1e+00]
  Bounds range     [4e-03, 3e+00]
  RHS range        [4e-03, 3e+00]
Presolve removed 2173 rows and 1093 columns
Presolve time: 0.01s
Presolved: 2280 rows, 1500 columns, 7931 nonzeros
Variable types: 1461 continuous, 39 integer (39 binary)
Found heuristic solution: objective 159.4021611
Root relaxation presolved: 2280 rows, 1500 columns, 7931 nonzeros

Root barrier log...

Ordering time: 0.03s

Barrier statistics:
 AA' NZ     : 4.339e+04
 Factor NZ  : 3.410e+05 (roughly 4 MB of memory)
 Factor Ops : 7.348e+07 (less than 1 second per iteration)
 Threads    : 36

                  Objective                Residual
Iter       Primal          Dual         Primal    Dual     Compl     Time
   0   5.85120791e+05 -4.30933274e+07  4.30e+00 9.80e+02  2.60e+04     0s
   1   4.29633902e+04 -1.13591971e+07  2.86e-01 6.68e-11  3.06e+03     0s
   2   1.13101496e+04 -9.14670994e+05  4.97e-14 9.63e-11  1.97e+02     0s
   3   6.81950195e+03 -5.70793122e+04  3.51e-13 1.04e-11  1.36e+01     0s
   4   1.09326794e+03 -6.65474345e+03  2.18e-13 5.46e-12  1.65e+00     0s
   5   4.61269890e+02 -2.09346170e+03  1.45e-13 3.64e-12  5.44e-01     0s
   6   2.61726351e+02 -6.27220625e+02  1.55e-13 3.64e-12  1.89e-01     0s
   7   1.90810141e+02 -1.57345355e+02  1.48e-13 1.82e-12  7.41e-02     0s
   8   1.33766022e+02  1.14616352e+01  1.10e-13 3.64e-12  2.60e-02     0s
   9   1.14322516e+02  6.67269740e+01  1.50e-13 3.64e-12  1.01e-02     0s
  10   9.74798433e+01  8.29810049e+01  6.16e-13 3.64e-12  3.08e-03     0s
  11   9.31081767e+01  8.85277689e+01  4.36e-13 3.64e-12  9.75e-04     0s
  12   9.27782426e+01  9.06291464e+01  4.92e-13 7.28e-12  4.57e-04     0s
  13   9.19319022e+01  9.09641353e+01  4.14e-12 7.28e-12  2.06e-04     0s
  14   9.16058566e+01  9.10897600e+01  3.38e-12 3.64e-12  1.10e-04     0s
  15   9.14202554e+01  9.11615751e+01  6.34e-12 7.28e-12  5.50e-05     0s
  16   9.12717605e+01  9.11774407e+01  3.69e-11 5.46e-12  2.01e-05     0s
  17   9.12052202e+01  9.11816845e+01  1.36e-09 3.64e-12  5.01e-06     0s
  18   9.11921384e+01  9.11833862e+01  1.41e-09 7.28e-12  1.86e-06     0s
  19   9.11836277e+01  9.11835701e+01  1.17e-09 7.28e-12  1.22e-08     0s
  20   9.11835717e+01  9.11835717e+01  1.33e-09 3.64e-12  1.22e-11     0s

Barrier solved model in 20 iterations and 0.35 seconds (0.09 work units)
Optimal objective 9.11835717e+01


Root relaxation: objective 9.118357e+01, 205 iterations, 0.32 seconds (0.06 work units)

    Nodes    |    Current Node    |     Objective Bounds      |     Work
 Expl Unexpl |  Obj  Depth IntInf | Incumbent    BestBd   Gap | It/Node Time

     0     0   91.18357    0   11  159.40216   91.18357  42.8%     -    0s
H    0     0                     127.7819871   91.18357  28.6%     -    0s
     0     0   95.54798    0   12  127.78199   95.54798  25.2%     -    0s
H    0     0                     108.8930922   95.54798  12.3%     -    0s
H    0     0                     108.5795878   95.91698  11.7%     -    0s
     0     0   95.91698    0   12  108.57959   95.91698  11.7%     -    0s
     0     0   96.22441    0   11  108.57959   96.22441  11.4%     -    0s
     0     0   96.22561    0   11  108.57959   96.22561  11.4%     -    0s
     0     0   96.30219    0   10  108.57959   96.30219  11.3%     -    0s
     0     0   96.30314    0   10  108.57959   96.30314  11.3%     -    0s
     0     0   96.30314    0   11  108.57959   96.30314  11.3%     -    0s
     0     0   96.32555    0   11  108.57959   96.32555  11.3%     -    0s
     0     0   96.32555    0   10  108.57959   96.32555  11.3%     -    0s
H    0     0                     101.9977377   96.32555  5.56%     -    1s
     0     2   96.32555    0   10  101.99774   96.32555  5.56%     -    1s

Cutting planes:
  Gomory: 7
  Implied bound: 1
  MIR: 56

Explored 113 nodes (3578 simplex iterations) in 1.39 seconds (1.00 work units)
Thread count was 36 (of 36 available processors)

Solution count 5: 101.998 108.58 108.893 ... 159.402

Optimal solution found (tolerance 1.00e-02)
Best objective 1.019977377078e+02, best bound 1.013530068939e+02, gap 0.6321%

Gurobi 9.5.0 (linux64) logging started Tue Nov  7 19:19:20 2023

Set parameter LogFile to value "/lustre1/scratch/348/vsc34888/JointResearch/05.Models/06.Benchmarking/F.Representative_days_based_on_Line_Benefit_NN_OC_fy_1/RTS24_ByStages_nc10/openStarNet_RTS24_ByStages_nc10.log"
Set parameter Method to value 2
Set parameter MIPFocus to value 1
Set parameter Presolve to value 2
Set parameter RINS to value 100
Set parameter MIPGap to value 0.01
Set parameter Threads to value 36
Set parameter TimeLimit to value 604800
Set parameter IterationLimit to value 760000000
No parameters matching 'relax_integrality' found
Gurobi Optimizer version 9.5.0 build v9.5.0rc5 (linux64)
Thread count: 36 physical cores, 36 logical processors, using up to 36 threads
Optimize a model with 4453 rows, 2554 columns and 10641 nonzeros
Model fingerprint: 0xb09d4039
Coefficient statistics:
  Matrix range     [3e-02, 4e+03]
  Objective range  [1e+00, 1e+00]
  Bounds range     [4e-03, 3e+00]
  RHS range        [4e-03, 3e+01]
Presolve removed 3535 rows and 1207 columns
Presolve time: 0.01s
Presolved: 918 rows, 1367 columns, 3363 nonzeros

Ordering time: 0.00s

Barrier statistics:
 AA' NZ     : 2.333e+03
 Factor NZ  : 1.007e+04 (roughly 1 MB of memory)
 Factor Ops : 1.525e+05 (less than 1 second per iteration)
 Threads    : 1

                  Objective                Residual
Iter       Primal          Dual         Primal    Dual     Compl     Time
   0   1.05310397e+06 -2.69374331e+08  2.78e+00 2.10e+03  2.12e+05     0s
   1   9.55491022e+04 -3.68118561e+07  2.27e-01 1.56e-10  2.01e+04     0s
   2   4.15245276e+04 -3.38690059e+06  5.59e-02 1.16e-10  1.72e+03     0s
   3   2.32762641e+04 -1.77616041e+05  9.19e-14 9.09e-11  8.56e+01     0s
   4   6.86220670e+03 -2.03835035e+04  7.55e-13 5.82e-11  1.16e+01     0s
   5   1.61396948e+03 -3.66567515e+03  2.61e-13 1.46e-11  2.25e+00     0s
   6   2.91742512e+02 -5.51173389e+02  6.94e-13 5.82e-11  3.59e-01     0s
   7   2.05125641e+02 -1.55735271e+02  4.47e-13 1.46e-11  1.54e-01     0s
   8   1.47800547e+02  1.04634392e+01  2.68e-13 1.46e-11  5.85e-02     0s
   9   1.07755069e+02  9.07112405e+01  1.48e-12 2.91e-11  7.26e-03     0s
  10   1.02539987e+02  1.00016030e+02  1.53e-12 1.46e-11  1.07e-03     0s
  11   1.02180159e+02  1.01832166e+02  7.56e-12 5.82e-11  1.48e-04     0s
  12   1.02020630e+02  1.01959893e+02  1.98e-11 2.91e-11  2.59e-05     0s
  13   1.01997904e+02  1.01996904e+02  2.47e-11 2.91e-11  4.26e-07     0s
  14   1.01997738e+02  1.01997737e+02  6.23e-12 2.91e-11  4.83e-10     0s
  15   1.01997738e+02  1.01997738e+02  6.92e-12 2.91e-11  4.83e-13     0s

Barrier solved model in 15 iterations and 0.02 seconds (0.01 work units)
Optimal objective 1.01997738e+02

Crossover log...

     116 DPushes remaining with DInf 0.0000000e+00                 0s
       0 DPushes remaining with DInf 0.0000000e+00                 0s

      53 PPushes remaining with PInf 0.0000000e+00                 0s
       0 PPushes remaining with PInf 0.0000000e+00                 0s

  Push phase complete: Pinf 0.0000000e+00, Dinf 1.7715204e-12      0s

Iteration    Objective       Primal Inf.    Dual Inf.      Time
      60    1.0199774e+02   0.000000e+00   0.000000e+00      0s

Use crossover to convert LP symmetric solution to basic solution...
Crossover log...

       0 DPushes remaining with DInf 0.0000000e+00                 0s

      35 PPushes remaining with PInf 0.0000000e+00                 0s
       0 PPushes remaining with PInf 0.0000000e+00                 0s

  Push phase complete: Pinf 0.0000000e+00, Dinf 4.0752261e-12      0s

Iteration    Objective       Primal Inf.    Dual Inf.      Time
      99    1.0199774e+02   0.000000e+00   0.000000e+00      0s

Solved in 99 iterations and 0.03 seconds (0.02 work units)
Optimal objective  1.019977377e+02
